(set-info :smt-lib-version 2.6)
(set-logic UF)
(set-info :source |Benchmarks from the paper: "Extending Sledgehammer with SMT Solvers" by Jasmin Blanchette, Sascha Bohme, and Lawrence C. Paulson, CADE 2011.  Translated to SMT2 by Andrew Reynolds and Morgan Deters.|)
(set-info :category "industrial")
(set-info :status unsat)
(declare-sort S1 0)
(declare-sort S2 0)
(declare-sort S3 0)
(declare-sort S4 0)
(declare-sort S5 0)
(declare-sort S6 0)
(declare-sort S7 0)
(declare-sort S8 0)
(declare-sort S9 0)
(declare-sort S10 0)
(declare-sort S11 0)
(declare-sort S12 0)
(declare-sort S13 0)
(declare-sort S14 0)
(declare-sort S15 0)
(declare-sort S16 0)
(declare-sort S17 0)
(declare-sort S18 0)
(declare-fun f1 () S1)
(declare-fun f2 () S1)
(declare-fun f3 (S3 S2) S2)
(declare-fun f4 (S4 S2) S3)
(declare-fun f5 () S4)
(declare-fun f6 () S4)
(declare-fun f7 () S3)
(declare-fun f8 (S3 S5) S1)
(declare-fun f9 () S4)
(declare-fun f10 (S6 S7) S2)
(declare-fun f11 () S6)
(declare-fun f12 (S8 S7) S7)
(declare-fun f13 () S8)
(declare-fun f14 () S8)
(declare-fun f15 () S7)
(declare-fun f16 () S5)
(declare-fun f17 (S9 S7) S8)
(declare-fun f18 () S9)
(declare-fun f19 () S8)
(declare-fun f20 (S11 S10) S10)
(declare-fun f21 (S12 S10) S11)
(declare-fun f22 () S12)
(declare-fun f23 (S13 S7) S10)
(declare-fun f24 () S13)
(declare-fun f25 (S7) S1)
(declare-fun f26 (S10) S1)
(declare-fun f27 () S9)
(declare-fun f28 () S12)
(declare-fun f29 () S4)
(declare-fun f30 (S14 S2) S7)
(declare-fun f31 (S15 S7) S14)
(declare-fun f32 () S15)
(declare-fun f33 (S16 S2) S10)
(declare-fun f34 (S17 S10) S16)
(declare-fun f35 () S17)
(declare-fun f36 (S2 S5) S1)
(declare-fun f37 (S5 S2) S1)
(declare-fun f38 () S9)
(declare-fun f39 () S12)
(declare-fun f40 () S4)
(declare-fun f41 (S18 S5) S5)
(declare-fun f42 (S5) S18)
(assert (not (= f1 f2)))
(assert (forall ((?v0 S2) (?v1 S2)) (= (f3 (f4 f5 ?v0) ?v1) (f3 (f4 f6 ?v1) ?v0))))
(assert (forall ((?v0 S2)) (= (f3 f7 ?v0) ?v0)))
(assert (not (= (f8 (f4 f9 (f10 f11 (f12 f13 (f12 f14 f15)))) f16) f1)))
(assert (forall ((?v0 S7)) (= (f12 (f17 f18 ?v0) (f12 f19 (f12 f14 f15))) ?v0)))
(assert (forall ((?v0 S10)) (= (f20 (f21 f22 ?v0) (f23 f24 (f12 f14 f15))) ?v0)))
(assert (forall ((?v0 S7)) (= (f12 (f17 f18 (f12 f19 (f12 f14 f15))) ?v0) ?v0)))
(assert (forall ((?v0 S10)) (= (f20 (f21 f22 (f23 f24 (f12 f14 f15))) ?v0) ?v0)))
(assert (= (f12 f13 f15) f15))
(assert (forall ((?v0 S7)) (= (= f15 (f12 f13 ?v0)) (= f15 ?v0))))
(assert (forall ((?v0 S7)) (= (= (f12 f13 ?v0) f15) (= ?v0 f15))))
(assert (forall ((?v0 S7) (?v1 S7)) (= (= (f12 f13 ?v0) (f12 f14 ?v1)) false)))
(assert (forall ((?v0 S7) (?v1 S7)) (= (= (f12 f14 ?v0) (f12 f13 ?v1)) false)))
(assert (forall ((?v0 S7)) (= (= f15 (f12 f14 ?v0)) false)))
(assert (forall ((?v0 S7)) (= (= (f12 f14 ?v0) f15) false)))
(assert (forall ((?v0 S7) (?v1 S7)) (= (f12 f19 (f12 (f17 f18 ?v0) ?v1)) (f12 (f17 f18 (f12 f19 ?v0)) (f12 f19 ?v1)))))
(assert (forall ((?v0 S7) (?v1 S7)) (= (f23 f24 (f12 (f17 f18 ?v0) ?v1)) (f20 (f21 f22 (f23 f24 ?v0)) (f23 f24 ?v1)))))
(assert (forall ((?v0 S7) (?v1 S7)) (= (f12 (f17 f18 (f12 f19 ?v0)) (f12 f19 ?v1)) (f12 f19 (f12 (f17 f18 ?v0) ?v1)))))
(assert (forall ((?v0 S7) (?v1 S7)) (= (f20 (f21 f22 (f23 f24 ?v0)) (f23 f24 ?v1)) (f23 f24 (f12 (f17 f18 ?v0) ?v1)))))
(assert (forall ((?v0 S7) (?v1 S7) (?v2 S7)) (= (f12 (f17 f18 (f12 f19 ?v0)) (f12 (f17 f18 (f12 f19 ?v1)) ?v2)) (f12 (f17 f18 (f12 f19 (f12 (f17 f18 ?v0) ?v1))) ?v2))))
(assert (forall ((?v0 S7) (?v1 S7) (?v2 S10)) (= (f20 (f21 f22 (f23 f24 ?v0)) (f20 (f21 f22 (f23 f24 ?v1)) ?v2)) (f20 (f21 f22 (f23 f24 (f12 (f17 f18 ?v0) ?v1))) ?v2))))
(assert (forall ((?v0 S7) (?v1 S7)) (= (f12 (f17 f18 ?v0) ?v1) (f12 (f17 f18 ?v1) ?v0))))
(assert (forall ((?v0 S7) (?v1 S7)) (= (f12 (f17 f18 (f12 f19 ?v0)) (f12 f19 ?v1)) (f12 f19 (f12 (f17 f18 ?v0) ?v1)))))
(assert (forall ((?v0 S7) (?v1 S7) (?v2 S7)) (let ((?v_0 (f17 f18 ?v0))) (= (f12 (f17 f18 (f12 ?v_0 ?v1)) ?v2) (f12 ?v_0 (f12 (f17 f18 ?v1) ?v2))))))
(assert (forall ((?v0 S7)) (= (f12 (f17 f18 f15) ?v0) f15)))
(assert (forall ((?v0 S7) (?v1 S7)) (= (f12 (f17 f18 (f12 f13 ?v0)) ?v1) (f12 f13 (f12 (f17 f18 ?v0) ?v1)))))
(assert (forall ((?v0 S7) (?v1 S7)) (= (= (f12 f19 ?v0) (f12 f19 ?v1)) (= ?v0 ?v1))))
(assert (forall ((?v0 S7) (?v1 S7)) (= (= (f23 f24 ?v0) (f23 f24 ?v1)) (= ?v0 ?v1))))
(assert (forall ((?v0 S7) (?v1 S2)) (let ((?v_0 (f10 f11 ?v0))) (= (= ?v_0 ?v1) (= ?v1 ?v_0)))))
(assert (forall ((?v0 S7) (?v1 S7)) (let ((?v_0 (f12 f19 ?v0))) (= (= ?v_0 ?v1) (= ?v1 ?v_0)))))
(assert (forall ((?v0 S7) (?v1 S10)) (let ((?v_0 (f23 f24 ?v0))) (= (= ?v_0 ?v1) (= ?v1 ?v_0)))))
(assert (forall ((?v0 S7) (?v1 S7)) (= (= (f12 f14 ?v0) (f12 f14 ?v1)) (= ?v0 ?v1))))
(assert (= (= f15 f15) true))
(assert (forall ((?v0 S7) (?v1 S7)) (= (= (f12 f13 ?v0) (f12 f13 ?v1)) (= ?v0 ?v1))))
(assert (not (= (f25 (f12 f19 (f12 f14 f15))) f1)))
(assert (not (= (f26 (f23 f24 (f12 f14 f15))) f1)))
(assert (forall ((?v0 S2)) (= (f3 (f4 f9 (f10 f11 (f12 f13 (f12 f14 f15)))) ?v0) (f3 (f4 f6 ?v0) ?v0))))
(assert (forall ((?v0 S7)) (= (f12 (f17 f18 (f12 f19 (f12 f13 (f12 f14 f15)))) ?v0) (f12 (f17 f27 ?v0) ?v0))))
(assert (forall ((?v0 S10)) (= (f20 (f21 f22 (f23 f24 (f12 f13 (f12 f14 f15)))) ?v0) (f20 (f21 f28 ?v0) ?v0))))
(assert (forall ((?v0 S7)) (= (f12 (f17 f18 (f12 f19 (f12 f13 (f12 f14 f15)))) ?v0) (f12 (f17 f27 ?v0) ?v0))))
(assert (forall ((?v0 S10)) (= (f20 (f21 f22 (f23 f24 (f12 f13 (f12 f14 f15)))) ?v0) (f20 (f21 f28 ?v0) ?v0))))
(assert (forall ((?v0 S2)) (= (f3 (f4 f9 ?v0) (f10 f11 (f12 f13 (f12 f14 f15)))) (f3 (f4 f6 ?v0) ?v0))))
(assert (forall ((?v0 S7)) (= (f12 (f17 f18 ?v0) (f12 f19 (f12 f13 (f12 f14 f15)))) (f12 (f17 f27 ?v0) ?v0))))
(assert (forall ((?v0 S10)) (= (f20 (f21 f22 ?v0) (f23 f24 (f12 f13 (f12 f14 f15)))) (f20 (f21 f28 ?v0) ?v0))))
(assert (forall ((?v0 S7)) (= (f12 (f17 f18 ?v0) (f12 f19 (f12 f13 (f12 f14 f15)))) (f12 (f17 f27 ?v0) ?v0))))
(assert (forall ((?v0 S10)) (= (f20 (f21 f22 ?v0) (f23 f24 (f12 f13 (f12 f14 f15)))) (f20 (f21 f28 ?v0) ?v0))))
(assert (forall ((?v0 S5)) (= (f8 f7 ?v0) f1)))
(assert (forall ((?v0 S2) (?v1 S2)) (let ((?v_0 (f4 f29 ?v0))) (let ((?v_1 (f3 ?v_0 ?v1))) (= (f3 ?v_0 (f3 (f4 f9 (f10 f11 (f12 f13 (f12 f14 f15)))) ?v1)) (f3 (f4 f9 ?v_1) ?v_1))))))
(assert (forall ((?v0 S7) (?v1 S2)) (let ((?v_0 (f31 f32 ?v0))) (let ((?v_1 (f30 ?v_0 ?v1))) (= (f30 ?v_0 (f3 (f4 f9 (f10 f11 (f12 f13 (f12 f14 f15)))) ?v1)) (f12 (f17 f18 ?v_1) ?v_1))))))
(assert (forall ((?v0 S10) (?v1 S2)) (let ((?v_0 (f34 f35 ?v0))) (let ((?v_1 (f33 ?v_0 ?v1))) (= (f33 ?v_0 (f3 (f4 f9 (f10 f11 (f12 f13 (f12 f14 f15)))) ?v1)) (f20 (f21 f22 ?v_1) ?v_1))))))
(assert (forall ((?v0 S7)) (let ((?v_0 (f10 f11 ?v0))) (= (f3 (f4 f29 ?v_0) (f10 f11 (f12 f13 (f12 f14 f15)))) (f3 (f4 f9 ?v_0) ?v_0)))))
(assert (forall ((?v0 S7)) (let ((?v_0 (f12 f19 ?v0))) (= (f30 (f31 f32 ?v_0) (f10 f11 (f12 f13 (f12 f14 f15)))) (f12 (f17 f18 ?v_0) ?v_0)))))
(assert (forall ((?v0 S7)) (let ((?v_0 (f23 f24 ?v0))) (= (f33 (f34 f35 ?v_0) (f10 f11 (f12 f13 (f12 f14 f15)))) (f20 (f21 f22 ?v_0) ?v_0)))))
(assert (forall ((?v0 S2)) (= (f3 (f4 f9 (f10 f11 (f12 f13 (f12 f14 f15)))) ?v0) (f3 (f4 f6 ?v0) ?v0))))
(assert (forall ((?v0 S2)) (= (f3 (f4 f9 ?v0) (f10 f11 (f12 f13 (f12 f14 f15)))) (f3 (f4 f6 ?v0) ?v0))))
(assert (forall ((?v0 S2) (?v1 S2)) (let ((?v_1 (f10 f11 (f12 f13 (f12 f14 f15)))) (?v_0 (f4 f29 ?v0))) (= (f3 ?v_0 (f3 (f4 f9 ?v_1) ?v1)) (f3 (f4 f29 (f3 ?v_0 ?v1)) ?v_1)))))
(assert (forall ((?v0 S7) (?v1 S2)) (let ((?v_1 (f10 f11 (f12 f13 (f12 f14 f15)))) (?v_0 (f31 f32 ?v0))) (= (f30 ?v_0 (f3 (f4 f9 ?v_1) ?v1)) (f30 (f31 f32 (f30 ?v_0 ?v1)) ?v_1)))))
(assert (forall ((?v0 S10) (?v1 S2)) (let ((?v_1 (f10 f11 (f12 f13 (f12 f14 f15)))) (?v_0 (f34 f35 ?v0))) (= (f33 ?v_0 (f3 (f4 f9 ?v_1) ?v1)) (f33 (f34 f35 (f33 ?v_0 ?v1)) ?v_1)))))
(assert (forall ((?v0 S7)) (= (f12 f19 ?v0) ?v0)))
(assert (forall ((?v0 S7) (?v1 S7)) (= (f12 (f17 f27 (f12 f19 ?v0)) (f12 f19 ?v1)) (f12 f19 (f12 (f17 f27 ?v0) ?v1)))))
(assert (forall ((?v0 S2) (?v1 S2) (?v2 S2)) (let ((?v_0 (f4 f29 ?v0))) (= (f3 (f4 f9 (f3 ?v_0 ?v1)) (f3 ?v_0 ?v2)) (f3 ?v_0 (f3 (f4 f6 ?v1) ?v2))))))
(assert (forall ((?v0 S7) (?v1 S2) (?v2 S2)) (let ((?v_0 (f31 f32 ?v0))) (= (f12 (f17 f18 (f30 ?v_0 ?v1)) (f30 ?v_0 ?v2)) (f30 ?v_0 (f3 (f4 f6 ?v1) ?v2))))))
(assert (forall ((?v0 S10) (?v1 S2) (?v2 S2)) (let ((?v_0 (f34 f35 ?v0))) (= (f20 (f21 f22 (f33 ?v_0 ?v1)) (f33 ?v_0 ?v2)) (f33 ?v_0 (f3 (f4 f6 ?v1) ?v2))))))
(assert (forall ((?v0 S2) (?v1 S2) (?v2 S2) (?v3 S2)) (let ((?v_0 (f4 f6 ?v0))) (= (f3 (f4 f6 (f3 ?v_0 ?v1)) (f3 (f4 f6 ?v2) ?v3)) (f3 (f4 f6 (f3 ?v_0 ?v2)) (f3 (f4 f6 ?v1) ?v3))))))
(assert (forall ((?v0 S7) (?v1 S7) (?v2 S7) (?v3 S7)) (let ((?v_0 (f17 f27 ?v0))) (= (f12 (f17 f27 (f12 ?v_0 ?v1)) (f12 (f17 f27 ?v2) ?v3)) (f12 (f17 f27 (f12 ?v_0 ?v2)) (f12 (f17 f27 ?v1) ?v3))))))
(assert (forall ((?v0 S10) (?v1 S10) (?v2 S10) (?v3 S10)) (let ((?v_0 (f21 f28 ?v0))) (= (f20 (f21 f28 (f20 ?v_0 ?v1)) (f20 (f21 f28 ?v2) ?v3)) (f20 (f21 f28 (f20 ?v_0 ?v2)) (f20 (f21 f28 ?v1) ?v3))))))
(assert (forall ((?v0 S2) (?v1 S2) (?v2 S2)) (let ((?v_0 (f4 f6 ?v0))) (= (f3 (f4 f6 (f3 ?v_0 ?v1)) ?v2) (f3 (f4 f6 (f3 ?v_0 ?v2)) ?v1)))))
(assert (forall ((?v0 S7) (?v1 S7) (?v2 S7)) (let ((?v_0 (f17 f27 ?v0))) (= (f12 (f17 f27 (f12 ?v_0 ?v1)) ?v2) (f12 (f17 f27 (f12 ?v_0 ?v2)) ?v1)))))
(assert (forall ((?v0 S10) (?v1 S10) (?v2 S10)) (let ((?v_0 (f21 f28 ?v0))) (= (f20 (f21 f28 (f20 ?v_0 ?v1)) ?v2) (f20 (f21 f28 (f20 ?v_0 ?v2)) ?v1)))))
(assert (forall ((?v0 S2) (?v1 S2) (?v2 S2)) (let ((?v_0 (f4 f6 ?v0))) (= (f3 (f4 f6 (f3 ?v_0 ?v1)) ?v2) (f3 ?v_0 (f3 (f4 f6 ?v1) ?v2))))))
(assert (forall ((?v0 S7) (?v1 S7) (?v2 S7)) (let ((?v_0 (f17 f27 ?v0))) (= (f12 (f17 f27 (f12 ?v_0 ?v1)) ?v2) (f12 ?v_0 (f12 (f17 f27 ?v1) ?v2))))))
(assert (forall ((?v0 S10) (?v1 S10) (?v2 S10)) (let ((?v_0 (f21 f28 ?v0))) (= (f20 (f21 f28 (f20 ?v_0 ?v1)) ?v2) (f20 ?v_0 (f20 (f21 f28 ?v1) ?v2))))))
(assert (forall ((?v0 S2) (?v1 S2) (?v2 S2)) (let ((?v_0 (f4 f6 ?v0))) (= (f3 ?v_0 (f3 (f4 f6 ?v1) ?v2)) (f3 (f4 f6 (f3 ?v_0 ?v1)) ?v2)))))
(assert (forall ((?v0 S7) (?v1 S7) (?v2 S7)) (let ((?v_0 (f17 f27 ?v0))) (= (f12 ?v_0 (f12 (f17 f27 ?v1) ?v2)) (f12 (f17 f27 (f12 ?v_0 ?v1)) ?v2)))))
(assert (forall ((?v0 S10) (?v1 S10) (?v2 S10)) (let ((?v_0 (f21 f28 ?v0))) (= (f20 ?v_0 (f20 (f21 f28 ?v1) ?v2)) (f20 (f21 f28 (f20 ?v_0 ?v1)) ?v2)))))
(assert (forall ((?v0 S2) (?v1 S2) (?v2 S2)) (let ((?v_1 (f4 f6 ?v0)) (?v_0 (f4 f6 ?v1))) (= (f3 ?v_1 (f3 ?v_0 ?v2)) (f3 ?v_0 (f3 ?v_1 ?v2))))))
(assert (forall ((?v0 S7) (?v1 S7) (?v2 S7)) (let ((?v_1 (f17 f27 ?v0)) (?v_0 (f17 f27 ?v1))) (= (f12 ?v_1 (f12 ?v_0 ?v2)) (f12 ?v_0 (f12 ?v_1 ?v2))))))
(assert (forall ((?v0 S10) (?v1 S10) (?v2 S10)) (let ((?v_1 (f21 f28 ?v0)) (?v_0 (f21 f28 ?v1))) (= (f20 ?v_1 (f20 ?v_0 ?v2)) (f20 ?v_0 (f20 ?v_1 ?v2))))))
(assert (forall ((?v0 S2) (?v1 S2)) (= (f3 (f4 f6 ?v0) ?v1) (f3 (f4 f6 ?v1) ?v0))))
(assert (forall ((?v0 S7) (?v1 S7)) (= (f12 (f17 f27 ?v0) ?v1) (f12 (f17 f27 ?v1) ?v0))))
(assert (forall ((?v0 S10) (?v1 S10)) (= (f20 (f21 f28 ?v0) ?v1) (f20 (f21 f28 ?v1) ?v0))))
(assert (forall ((?v0 S7) (?v1 S7) (?v2 S7)) (= (f12 (f17 f27 (f12 f19 ?v0)) (f12 (f17 f27 (f12 f19 ?v1)) ?v2)) (f12 (f17 f27 (f12 f19 (f12 (f17 f27 ?v0) ?v1))) ?v2))))
(assert (forall ((?v0 S7) (?v1 S7) (?v2 S10)) (= (f20 (f21 f28 (f23 f24 ?v0)) (f20 (f21 f28 (f23 f24 ?v1)) ?v2)) (f20 (f21 f28 (f23 f24 (f12 (f17 f27 ?v0) ?v1))) ?v2))))
(assert (forall ((?v0 S7) (?v1 S7)) (= (f12 (f17 f27 (f12 f19 ?v0)) (f12 f19 ?v1)) (f12 f19 (f12 (f17 f27 ?v0) ?v1)))))
(assert (forall ((?v0 S7) (?v1 S7)) (= (f20 (f21 f28 (f23 f24 ?v0)) (f23 f24 ?v1)) (f23 f24 (f12 (f17 f27 ?v0) ?v1)))))
(assert (forall ((?v0 S7) (?v1 S7)) (= (f12 f19 (f12 (f17 f27 ?v0) ?v1)) (f12 (f17 f27 (f12 f19 ?v0)) (f12 f19 ?v1)))))
(assert (forall ((?v0 S7) (?v1 S7)) (= (f23 f24 (f12 (f17 f27 ?v0) ?v1)) (f20 (f21 f28 (f23 f24 ?v0)) (f23 f24 ?v1)))))
(assert (forall ((?v0 S7) (?v1 S2) (?v2 S2)) (let ((?v_0 (f31 f32 ?v0))) (= (f30 ?v_0 (f3 (f4 f6 ?v1) ?v2)) (f12 (f17 f18 (f30 ?v_0 ?v1)) (f30 ?v_0 ?v2))))))
(assert (forall ((?v0 S2) (?v1 S2) (?v2 S2)) (= (f3 (f4 f29 (f3 (f4 f9 ?v0) ?v1)) ?v2) (f3 (f4 f9 (f3 (f4 f29 ?v0) ?v2)) (f3 (f4 f29 ?v1) ?v2)))))
(assert (forall ((?v0 S7) (?v1 S7) (?v2 S2)) (= (f30 (f31 f32 (f12 (f17 f18 ?v0) ?v1)) ?v2) (f12 (f17 f18 (f30 (f31 f32 ?v0) ?v2)) (f30 (f31 f32 ?v1) ?v2)))))
(assert (forall ((?v0 S10) (?v1 S10) (?v2 S2)) (= (f33 (f34 f35 (f20 (f21 f22 ?v0) ?v1)) ?v2) (f20 (f21 f22 (f33 (f34 f35 ?v0) ?v2)) (f33 (f34 f35 ?v1) ?v2)))))
(assert (forall ((?v0 S2) (?v1 S2) (?v2 S2)) (let ((?v_0 (f4 f9 ?v0))) (= (f3 ?v_0 (f3 (f4 f6 ?v1) ?v2)) (f3 (f4 f6 (f3 ?v_0 ?v1)) (f3 ?v_0 ?v2))))))
(assert (forall ((?v0 S7) (?v1 S7) (?v2 S7)) (let ((?v_0 (f17 f18 ?v0))) (= (f12 ?v_0 (f12 (f17 f27 ?v1) ?v2)) (f12 (f17 f27 (f12 ?v_0 ?v1)) (f12 ?v_0 ?v2))))))
(assert (forall ((?v0 S10) (?v1 S10) (?v2 S10)) (let ((?v_0 (f21 f22 ?v0))) (= (f20 ?v_0 (f20 (f21 f28 ?v1) ?v2)) (f20 (f21 f28 (f20 ?v_0 ?v1)) (f20 ?v_0 ?v2))))))
(assert (forall ((?v0 S2) (?v1 S2) (?v2 S2) (?v3 S2)) (let ((?v_0 (f4 f9 ?v0)) (?v_1 (f4 f9 ?v1))) (= (and (not (= ?v0 ?v1)) (not (= ?v2 ?v3))) (not (= (f3 (f4 f6 (f3 ?v_0 ?v2)) (f3 ?v_1 ?v3)) (f3 (f4 f6 (f3 ?v_0 ?v3)) (f3 ?v_1 ?v2))))))))
(assert (forall ((?v0 S7) (?v1 S7) (?v2 S7) (?v3 S7)) (let ((?v_0 (f17 f18 ?v0)) (?v_1 (f17 f18 ?v1))) (= (and (not (= ?v0 ?v1)) (not (= ?v2 ?v3))) (not (= (f12 (f17 f27 (f12 ?v_0 ?v2)) (f12 ?v_1 ?v3)) (f12 (f17 f27 (f12 ?v_0 ?v3)) (f12 ?v_1 ?v2))))))))
(assert (forall ((?v0 S10) (?v1 S10) (?v2 S10) (?v3 S10)) (let ((?v_0 (f21 f22 ?v0)) (?v_1 (f21 f22 ?v1))) (= (and (not (= ?v0 ?v1)) (not (= ?v2 ?v3))) (not (= (f20 (f21 f28 (f20 ?v_0 ?v2)) (f20 ?v_1 ?v3)) (f20 (f21 f28 (f20 ?v_0 ?v3)) (f20 ?v_1 ?v2))))))))
(assert (forall ((?v0 S2) (?v1 S2) (?v2 S2)) (= (f3 (f4 f9 (f3 (f4 f6 ?v0) ?v1)) ?v2) (f3 (f4 f6 (f3 (f4 f9 ?v0) ?v2)) (f3 (f4 f9 ?v1) ?v2)))))
(assert (forall ((?v0 S7) (?v1 S7) (?v2 S7)) (= (f12 (f17 f18 (f12 (f17 f27 ?v0) ?v1)) ?v2) (f12 (f17 f27 (f12 (f17 f18 ?v0) ?v2)) (f12 (f17 f18 ?v1) ?v2)))))
(assert (forall ((?v0 S10) (?v1 S10) (?v2 S10)) (= (f20 (f21 f22 (f20 (f21 f28 ?v0) ?v1)) ?v2) (f20 (f21 f28 (f20 (f21 f22 ?v0) ?v2)) (f20 (f21 f22 ?v1) ?v2)))))
(assert (forall ((?v0 S2) (?v1 S2) (?v2 S2)) (= (f3 (f4 f6 (f3 (f4 f9 ?v0) ?v1)) (f3 (f4 f9 ?v2) ?v1)) (f3 (f4 f9 (f3 (f4 f6 ?v0) ?v2)) ?v1))))
(assert (forall ((?v0 S7) (?v1 S7) (?v2 S7)) (= (f12 (f17 f27 (f12 (f17 f18 ?v0) ?v1)) (f12 (f17 f18 ?v2) ?v1)) (f12 (f17 f18 (f12 (f17 f27 ?v0) ?v2)) ?v1))))
(assert (forall ((?v0 S10) (?v1 S10) (?v2 S10)) (= (f20 (f21 f28 (f20 (f21 f22 ?v0) ?v1)) (f20 (f21 f22 ?v2) ?v1)) (f20 (f21 f22 (f20 (f21 f28 ?v0) ?v2)) ?v1))))
(assert (forall ((?v0 S2) (?v1 S2) (?v2 S2) (?v3 S2)) (let ((?v_0 (f4 f9 ?v0)) (?v_1 (f4 f9 ?v2))) (= (= (f3 (f4 f6 (f3 ?v_0 ?v1)) (f3 ?v_1 ?v3)) (f3 (f4 f6 (f3 ?v_0 ?v3)) (f3 ?v_1 ?v1))) (or (= ?v0 ?v2) (= ?v1 ?v3))))))
(assert (forall ((?v0 S7) (?v1 S7) (?v2 S7) (?v3 S7)) (let ((?v_0 (f17 f18 ?v0)) (?v_1 (f17 f18 ?v2))) (= (= (f12 (f17 f27 (f12 ?v_0 ?v1)) (f12 ?v_1 ?v3)) (f12 (f17 f27 (f12 ?v_0 ?v3)) (f12 ?v_1 ?v1))) (or (= ?v0 ?v2) (= ?v1 ?v3))))))
(assert (forall ((?v0 S10) (?v1 S10) (?v2 S10) (?v3 S10)) (let ((?v_0 (f21 f22 ?v0)) (?v_1 (f21 f22 ?v2))) (= (= (f20 (f21 f28 (f20 ?v_0 ?v1)) (f20 ?v_1 ?v3)) (f20 (f21 f28 (f20 ?v_0 ?v3)) (f20 ?v_1 ?v1))) (or (= ?v0 ?v2) (= ?v1 ?v3))))))
(assert (forall ((?v0 S2) (?v1 S2) (?v2 S2)) (let ((?v_0 (f4 f29 ?v0))) (= (f3 (f4 f29 (f3 ?v_0 ?v1)) ?v2) (f3 ?v_0 (f3 (f4 f9 ?v1) ?v2))))))
(assert (forall ((?v0 S7) (?v1 S2) (?v2 S2)) (let ((?v_0 (f31 f32 ?v0))) (= (f30 (f31 f32 (f30 ?v_0 ?v1)) ?v2) (f30 ?v_0 (f3 (f4 f9 ?v1) ?v2))))))
(assert (forall ((?v0 S10) (?v1 S2) (?v2 S2)) (let ((?v_0 (f34 f35 ?v0))) (= (f33 (f34 f35 (f33 ?v_0 ?v1)) ?v2) (f33 ?v_0 (f3 (f4 f9 ?v1) ?v2))))))
(assert (forall ((?v0 S7) (?v1 S2) (?v2 S2)) (let ((?v_0 (f31 f32 ?v0))) (= (f30 (f31 f32 (f30 ?v_0 ?v1)) ?v2) (f30 ?v_0 (f3 (f4 f9 ?v1) ?v2))))))
(assert (forall ((?v0 S7)) (= (f12 (f17 f27 f15) ?v0) ?v0)))
(assert (forall ((?v0 S7)) (= (f12 (f17 f27 ?v0) f15) ?v0)))
(assert (forall ((?v0 S7)) (= (f12 f13 ?v0) (f12 (f17 f27 ?v0) ?v0))))
(assert (forall ((?v0 S7) (?v1 S7)) (= (f12 (f17 f27 (f12 f13 ?v0)) (f12 f13 ?v1)) (f12 f13 (f12 (f17 f27 ?v0) ?v1)))))
(assert (forall ((?v0 S7) (?v1 S7) (?v2 S7)) (= (f12 (f17 f18 (f12 (f17 f27 ?v0) ?v1)) ?v2) (f12 (f17 f27 (f12 (f17 f18 ?v0) ?v2)) (f12 (f17 f18 ?v1) ?v2)))))
(assert (forall ((?v0 S7) (?v1 S7) (?v2 S7)) (let ((?v_0 (f17 f18 ?v0))) (= (f12 ?v_0 (f12 (f17 f27 ?v1) ?v2)) (f12 (f17 f27 (f12 ?v_0 ?v1)) (f12 ?v_0 ?v2))))))
(assert (forall ((?v0 S7) (?v1 S2) (?v2 S2)) (let ((?v_0 (f4 f9 (f10 f11 ?v0)))) (= (f3 ?v_0 (f3 (f4 f6 ?v1) ?v2)) (f3 (f4 f6 (f3 ?v_0 ?v1)) (f3 ?v_0 ?v2))))))
(assert (forall ((?v0 S7) (?v1 S7) (?v2 S7)) (let ((?v_0 (f17 f18 (f12 f19 ?v0)))) (= (f12 ?v_0 (f12 (f17 f27 ?v1) ?v2)) (f12 (f17 f27 (f12 ?v_0 ?v1)) (f12 ?v_0 ?v2))))))
(assert (forall ((?v0 S7) (?v1 S10) (?v2 S10)) (let ((?v_0 (f21 f22 (f23 f24 ?v0)))) (= (f20 ?v_0 (f20 (f21 f28 ?v1) ?v2)) (f20 (f21 f28 (f20 ?v_0 ?v1)) (f20 ?v_0 ?v2))))))
(assert (forall ((?v0 S2) (?v1 S2) (?v2 S7)) (let ((?v_0 (f10 f11 ?v2))) (= (f3 (f4 f9 (f3 (f4 f6 ?v0) ?v1)) ?v_0) (f3 (f4 f6 (f3 (f4 f9 ?v0) ?v_0)) (f3 (f4 f9 ?v1) ?v_0))))))
(assert (forall ((?v0 S7) (?v1 S7) (?v2 S7)) (let ((?v_0 (f12 f19 ?v2))) (= (f12 (f17 f18 (f12 (f17 f27 ?v0) ?v1)) ?v_0) (f12 (f17 f27 (f12 (f17 f18 ?v0) ?v_0)) (f12 (f17 f18 ?v1) ?v_0))))))
(assert (forall ((?v0 S10) (?v1 S10) (?v2 S7)) (let ((?v_0 (f23 f24 ?v2))) (= (f20 (f21 f22 (f20 (f21 f28 ?v0) ?v1)) ?v_0) (f20 (f21 f28 (f20 (f21 f22 ?v0) ?v_0)) (f20 (f21 f22 ?v1) ?v_0))))))
(assert (forall ((?v0 S7)) (= (f12 (f17 f27 ?v0) (f12 f19 f15)) ?v0)))
(assert (forall ((?v0 S10)) (= (f20 (f21 f28 ?v0) (f23 f24 f15)) ?v0)))
(assert (forall ((?v0 S7)) (= (f12 (f17 f27 (f12 f19 f15)) ?v0) ?v0)))
(assert (forall ((?v0 S10)) (= (f20 (f21 f28 (f23 f24 f15)) ?v0) ?v0)))
(assert (forall ((?v0 S7) (?v1 S7)) (= (f12 (f17 f27 (f12 f13 ?v0)) (f12 f14 ?v1)) (f12 f14 (f12 (f17 f27 ?v0) ?v1)))))
(assert (forall ((?v0 S7) (?v1 S7)) (= (f12 (f17 f27 (f12 f14 ?v0)) (f12 f13 ?v1)) (f12 f14 (f12 (f17 f27 ?v0) ?v1)))))
(assert (forall ((?v0 S2) (?v1 S2)) (let ((?v_0 (f10 f11 (f12 f13 (f12 f14 f15))))) (= (f3 (f4 f29 (f3 (f4 f6 ?v0) ?v1)) ?v_0) (f3 (f4 f6 (f3 (f4 f6 (f3 (f4 f29 ?v0) ?v_0)) (f3 (f4 f29 ?v1) ?v_0))) (f3 (f4 f9 (f3 (f4 f9 ?v_0) ?v0)) ?v1))))))
(assert (forall ((?v0 S7) (?v1 S7)) (let ((?v_1 (f12 f13 (f12 f14 f15)))) (let ((?v_0 (f10 f11 ?v_1))) (= (f30 (f31 f32 (f12 (f17 f27 ?v0) ?v1)) ?v_0) (f12 (f17 f27 (f12 (f17 f27 (f30 (f31 f32 ?v0) ?v_0)) (f30 (f31 f32 ?v1) ?v_0))) (f12 (f17 f18 (f12 (f17 f18 (f12 f19 ?v_1)) ?v0)) ?v1)))))))
(assert (forall ((?v0 S10) (?v1 S10)) (let ((?v_1 (f12 f13 (f12 f14 f15)))) (let ((?v_0 (f10 f11 ?v_1))) (= (f33 (f34 f35 (f20 (f21 f28 ?v0) ?v1)) ?v_0) (f20 (f21 f28 (f20 (f21 f28 (f33 (f34 f35 ?v0) ?v_0)) (f33 (f34 f35 ?v1) ?v_0))) (f20 (f21 f22 (f20 (f21 f22 (f23 f24 ?v_1)) ?v0)) ?v1)))))))
(assert (forall ((?v0 S2)) (= (f3 (f4 f29 ?v0) (f10 f11 (f12 f14 (f12 f14 f15)))) (f3 (f4 f9 (f3 (f4 f9 ?v0) ?v0)) ?v0))))
(assert (forall ((?v0 S7)) (= (f30 (f31 f32 ?v0) (f10 f11 (f12 f14 (f12 f14 f15)))) (f12 (f17 f18 (f12 (f17 f18 ?v0) ?v0)) ?v0))))
(assert (forall ((?v0 S10)) (= (f33 (f34 f35 ?v0) (f10 f11 (f12 f14 (f12 f14 f15)))) (f20 (f21 f22 (f20 (f21 f22 ?v0) ?v0)) ?v0))))
(assert (forall ((?v0 S7) (?v1 S7)) (= (f12 (f17 f18 (f12 f14 ?v0)) ?v1) (f12 (f17 f27 (f12 f13 (f12 (f17 f18 ?v0) ?v1))) ?v1))))
(assert (forall ((?v0 S2) (?v1 S2)) (= (f3 (f4 f9 ?v0) ?v1) (f3 (f4 f9 ?v1) ?v0))))
(assert (forall ((?v0 S7) (?v1 S7)) (= (f12 (f17 f18 ?v0) ?v1) (f12 (f17 f18 ?v1) ?v0))))
(assert (forall ((?v0 S10) (?v1 S10)) (= (f20 (f21 f22 ?v0) ?v1) (f20 (f21 f22 ?v1) ?v0))))
(assert (forall ((?v0 S2) (?v1 S2) (?v2 S2)) (let ((?v_1 (f4 f9 ?v0)) (?v_0 (f4 f9 ?v1))) (= (f3 ?v_1 (f3 ?v_0 ?v2)) (f3 ?v_0 (f3 ?v_1 ?v2))))))
(assert (forall ((?v0 S7) (?v1 S7) (?v2 S7)) (let ((?v_1 (f17 f18 ?v0)) (?v_0 (f17 f18 ?v1))) (= (f12 ?v_1 (f12 ?v_0 ?v2)) (f12 ?v_0 (f12 ?v_1 ?v2))))))
(assert (forall ((?v0 S10) (?v1 S10) (?v2 S10)) (let ((?v_1 (f21 f22 ?v0)) (?v_0 (f21 f22 ?v1))) (= (f20 ?v_1 (f20 ?v_0 ?v2)) (f20 ?v_0 (f20 ?v_1 ?v2))))))
(assert (forall ((?v0 S2) (?v1 S2) (?v2 S2)) (let ((?v_0 (f4 f9 ?v0))) (= (f3 ?v_0 (f3 (f4 f9 ?v1) ?v2)) (f3 (f4 f9 (f3 ?v_0 ?v1)) ?v2)))))
(assert (forall ((?v0 S7) (?v1 S7) (?v2 S7)) (let ((?v_0 (f17 f18 ?v0))) (= (f12 ?v_0 (f12 (f17 f18 ?v1) ?v2)) (f12 (f17 f18 (f12 ?v_0 ?v1)) ?v2)))))
(assert (forall ((?v0 S10) (?v1 S10) (?v2 S10)) (let ((?v_0 (f21 f22 ?v0))) (= (f20 ?v_0 (f20 (f21 f22 ?v1) ?v2)) (f20 (f21 f22 (f20 ?v_0 ?v1)) ?v2)))))
(assert (forall ((?v0 S2) (?v1 S2) (?v2 S2)) (let ((?v_0 (f4 f9 ?v0))) (= (f3 (f4 f9 (f3 ?v_0 ?v1)) ?v2) (f3 ?v_0 (f3 (f4 f9 ?v1) ?v2))))))
(assert (forall ((?v0 S7) (?v1 S7) (?v2 S7)) (let ((?v_0 (f17 f18 ?v0))) (= (f12 (f17 f18 (f12 ?v_0 ?v1)) ?v2) (f12 ?v_0 (f12 (f17 f18 ?v1) ?v2))))))
(assert (forall ((?v0 S10) (?v1 S10) (?v2 S10)) (let ((?v_0 (f21 f22 ?v0))) (= (f20 (f21 f22 (f20 ?v_0 ?v1)) ?v2) (f20 ?v_0 (f20 (f21 f22 ?v1) ?v2))))))
(assert (forall ((?v0 S2) (?v1 S2) (?v2 S2)) (let ((?v_0 (f4 f9 ?v0))) (= (f3 (f4 f9 (f3 ?v_0 ?v1)) ?v2) (f3 (f4 f9 (f3 ?v_0 ?v2)) ?v1)))))
(assert (forall ((?v0 S7) (?v1 S7) (?v2 S7)) (let ((?v_0 (f17 f18 ?v0))) (= (f12 (f17 f18 (f12 ?v_0 ?v1)) ?v2) (f12 (f17 f18 (f12 ?v_0 ?v2)) ?v1)))))
(assert (forall ((?v0 S10) (?v1 S10) (?v2 S10)) (let ((?v_0 (f21 f22 ?v0))) (= (f20 (f21 f22 (f20 ?v_0 ?v1)) ?v2) (f20 (f21 f22 (f20 ?v_0 ?v2)) ?v1)))))
(assert (forall ((?v0 S2) (?v1 S2) (?v2 S2) (?v3 S2)) (let ((?v_0 (f4 f9 ?v0)) (?v_1 (f3 (f4 f9 ?v2) ?v3))) (= (f3 (f4 f9 (f3 ?v_0 ?v1)) ?v_1) (f3 ?v_0 (f3 (f4 f9 ?v1) ?v_1))))))
(assert (forall ((?v0 S7) (?v1 S7) (?v2 S7) (?v3 S7)) (let ((?v_0 (f17 f18 ?v0)) (?v_1 (f12 (f17 f18 ?v2) ?v3))) (= (f12 (f17 f18 (f12 ?v_0 ?v1)) ?v_1) (f12 ?v_0 (f12 (f17 f18 ?v1) ?v_1))))))
(assert (forall ((?v0 S10) (?v1 S10) (?v2 S10) (?v3 S10)) (let ((?v_0 (f21 f22 ?v0)) (?v_1 (f20 (f21 f22 ?v2) ?v3))) (= (f20 (f21 f22 (f20 ?v_0 ?v1)) ?v_1) (f20 ?v_0 (f20 (f21 f22 ?v1) ?v_1))))))
(assert (forall ((?v0 S2) (?v1 S5)) (= (= (f36 ?v0 ?v1) f1) (= (f37 ?v1 ?v0) f1))))
(assert (forall ((?v0 S2) (?v1 S2) (?v2 S2) (?v3 S2)) (let ((?v_1 (f4 f9 (f3 (f4 f9 ?v0) ?v1))) (?v_0 (f4 f9 ?v2))) (= (f3 ?v_1 (f3 ?v_0 ?v3)) (f3 ?v_0 (f3 ?v_1 ?v3))))))
(assert (forall ((?v0 S7) (?v1 S7) (?v2 S7) (?v3 S7)) (let ((?v_1 (f17 f18 (f12 (f17 f18 ?v0) ?v1))) (?v_0 (f17 f18 ?v2))) (= (f12 ?v_1 (f12 ?v_0 ?v3)) (f12 ?v_0 (f12 ?v_1 ?v3))))))
(assert (forall ((?v0 S10) (?v1 S10) (?v2 S10) (?v3 S10)) (let ((?v_1 (f21 f22 (f20 (f21 f22 ?v0) ?v1))) (?v_0 (f21 f22 ?v2))) (= (f20 ?v_1 (f20 ?v_0 ?v3)) (f20 ?v_0 (f20 ?v_1 ?v3))))))
(assert (forall ((?v0 S2) (?v1 S2) (?v2 S2) (?v3 S2)) (let ((?v_0 (f4 f9 ?v0))) (= (f3 (f4 f9 (f3 ?v_0 ?v1)) (f3 (f4 f9 ?v2) ?v3)) (f3 (f4 f9 (f3 ?v_0 ?v2)) (f3 (f4 f9 ?v1) ?v3))))))
(assert (forall ((?v0 S7) (?v1 S7) (?v2 S7) (?v3 S7)) (let ((?v_0 (f17 f18 ?v0))) (= (f12 (f17 f18 (f12 ?v_0 ?v1)) (f12 (f17 f18 ?v2) ?v3)) (f12 (f17 f18 (f12 ?v_0 ?v2)) (f12 (f17 f18 ?v1) ?v3))))))
(assert (forall ((?v0 S10) (?v1 S10) (?v2 S10) (?v3 S10)) (let ((?v_0 (f21 f22 ?v0))) (= (f20 (f21 f22 (f20 ?v_0 ?v1)) (f20 (f21 f22 ?v2) ?v3)) (f20 (f21 f22 (f20 ?v_0 ?v2)) (f20 (f21 f22 ?v1) ?v3))))))
(assert (forall ((?v0 S2)) (= (f3 (f4 f9 ?v0) ?v0) (f3 (f4 f29 ?v0) (f10 f11 (f12 f13 (f12 f14 f15)))))))
(assert (forall ((?v0 S7)) (= (f12 (f17 f18 ?v0) ?v0) (f30 (f31 f32 ?v0) (f10 f11 (f12 f13 (f12 f14 f15)))))))
(assert (forall ((?v0 S10)) (= (f20 (f21 f22 ?v0) ?v0) (f33 (f34 f35 ?v0) (f10 f11 (f12 f13 (f12 f14 f15)))))))
(assert (forall ((?v0 S2)) (= (f3 (f4 f29 ?v0) (f10 f11 (f12 f13 (f12 f14 f15)))) (f3 (f4 f9 ?v0) ?v0))))
(assert (forall ((?v0 S7)) (= (f30 (f31 f32 ?v0) (f10 f11 (f12 f13 (f12 f14 f15)))) (f12 (f17 f18 ?v0) ?v0))))
(assert (forall ((?v0 S10)) (= (f33 (f34 f35 ?v0) (f10 f11 (f12 f13 (f12 f14 f15)))) (f20 (f21 f22 ?v0) ?v0))))
(assert (forall ((?v0 S7)) (not (= (f25 (f12 f19 (f12 f14 ?v0))) f1))))
(assert (forall ((?v0 S7)) (not (= (f26 (f23 f24 (f12 f14 ?v0))) f1))))
(assert (= (f25 (f12 f19 f15)) f1))
(assert (= (f26 (f23 f24 f15)) f1))
(assert (forall ((?v0 S7)) (= (= (f25 (f12 f19 (f12 f13 ?v0))) f1) (= (f25 (f12 f19 ?v0)) f1))))
(assert (forall ((?v0 S7)) (= (= (f26 (f23 f24 (f12 f13 ?v0))) f1) (= (f26 (f23 f24 ?v0)) f1))))
(assert (forall ((?v0 S3) (?v1 S5)) (= (= (f8 ?v0 ?v1) f1) (forall ((?v2 S2)) (=> (= (f36 ?v2 ?v1) f1) (forall ((?v3 S2)) (=> (= (f36 ?v3 ?v1) f1) (=> (= (f3 ?v0 ?v2) (f3 ?v0 ?v3)) (= ?v2 ?v3)))))))))
(assert (forall ((?v0 S3) (?v1 S5) (?v2 S2) (?v3 S2)) (=> (= (f8 ?v0 ?v1) f1) (=> (not (= ?v2 ?v3)) (=> (= (f36 ?v2 ?v1) f1) (=> (= (f36 ?v3 ?v1) f1) (not (= (f3 ?v0 ?v2) (f3 ?v0 ?v3)))))))))
(assert (forall ((?v0 S3) (?v1 S5) (?v2 S2) (?v3 S2)) (=> (= (f8 ?v0 ?v1) f1) (=> (= (f36 ?v2 ?v1) f1) (=> (= (f36 ?v3 ?v1) f1) (= (= (f3 ?v0 ?v2) (f3 ?v0 ?v3)) (= ?v2 ?v3)))))))
(assert (forall ((?v0 S3) (?v1 S5) (?v2 S2) (?v3 S2)) (=> (= (f8 ?v0 ?v1) f1) (=> (= (f3 ?v0 ?v2) (f3 ?v0 ?v3)) (=> (= (f36 ?v2 ?v1) f1) (=> (= (f36 ?v3 ?v1) f1) (= ?v2 ?v3)))))))
(assert (forall ((?v0 S10) (?v1 S10)) (let ((?v_1 (f12 f13 (f12 f14 f15)))) (let ((?v_0 (f10 f11 ?v_1))) (= (f33 (f34 f35 (f20 (f21 f28 ?v0) ?v1)) ?v_0) (f20 (f21 f28 (f20 (f21 f28 (f33 (f34 f35 ?v0) ?v_0)) (f33 (f34 f35 ?v1) ?v_0))) (f20 (f21 f22 (f20 (f21 f22 (f23 f24 ?v_1)) ?v0)) ?v1)))))))
(assert (forall ((?v0 S10)) (let ((?v_0 (f12 f13 (f12 f14 f15)))) (let ((?v_1 (f10 f11 ?v_0))) (= (f20 (f21 f22 (f23 f24 (f12 f13 ?v_0))) (f33 (f34 f35 ?v0) ?v_1)) (f33 (f34 f35 (f20 (f21 f22 (f23 f24 ?v_0)) ?v0)) ?v_1))))))
(assert (forall ((?v0 S2) (?v1 S5)) (= (f8 (f4 f5 ?v0) ?v1) f1)))
(assert (forall ((?v0 S2) (?v1 S2) (?v2 S2)) (let ((?v_0 (f4 f29 ?v0))) (= (f3 ?v_0 (f3 (f4 f6 ?v1) ?v2)) (f3 (f4 f9 (f3 ?v_0 ?v1)) (f3 ?v_0 ?v2))))))
(assert (forall ((?v0 S7) (?v1 S2) (?v2 S2)) (let ((?v_0 (f31 f32 ?v0))) (= (f30 ?v_0 (f3 (f4 f6 ?v1) ?v2)) (f12 (f17 f18 (f30 ?v_0 ?v1)) (f30 ?v_0 ?v2))))))
(assert (forall ((?v0 S10) (?v1 S2) (?v2 S2)) (let ((?v_0 (f34 f35 ?v0))) (= (f33 ?v_0 (f3 (f4 f6 ?v1) ?v2)) (f20 (f21 f22 (f33 ?v_0 ?v1)) (f33 ?v_0 ?v2))))))
(assert (forall ((?v0 S7) (?v1 S7)) (let ((?v_1 (f12 f13 (f12 f14 f15)))) (let ((?v_0 (f10 f11 ?v_1))) (= (f30 (f31 f32 (f12 (f17 f38 ?v0) ?v1)) ?v_0) (f12 (f17 f38 (f12 (f17 f27 (f30 (f31 f32 ?v0) ?v_0)) (f30 (f31 f32 ?v1) ?v_0))) (f12 (f17 f18 (f12 (f17 f18 (f12 f19 ?v_1)) ?v0)) ?v1)))))))
(assert (forall ((?v0 S10) (?v1 S10)) (let ((?v_1 (f12 f13 (f12 f14 f15)))) (let ((?v_0 (f10 f11 ?v_1))) (= (f33 (f34 f35 (f20 (f21 f39 ?v0) ?v1)) ?v_0) (f20 (f21 f39 (f20 (f21 f28 (f33 (f34 f35 ?v0) ?v_0)) (f33 (f34 f35 ?v1) ?v_0))) (f20 (f21 f22 (f20 (f21 f22 (f23 f24 ?v_1)) ?v0)) ?v1)))))))
(assert (forall ((?v0 S2) (?v1 S2) (?v2 S2)) (let ((?v_0 (f4 f9 ?v0))) (= (f3 ?v_0 (f3 (f4 f6 ?v1) ?v2)) (f3 (f4 f6 (f3 ?v_0 ?v1)) (f3 ?v_0 ?v2))))))
(assert (forall ((?v0 S2) (?v1 S2) (?v2 S2)) (= (f3 (f4 f9 (f3 (f4 f6 ?v0) ?v1)) ?v2) (f3 (f4 f6 (f3 (f4 f9 ?v0) ?v2)) (f3 (f4 f9 ?v1) ?v2)))))
(assert (forall ((?v0 S2) (?v1 S2) (?v2 S2) (?v3 S2)) (= (f3 (f4 f6 (f3 (f4 f9 ?v0) ?v1)) (f3 (f4 f6 (f3 (f4 f9 ?v2) ?v1)) ?v3)) (f3 (f4 f6 (f3 (f4 f9 (f3 (f4 f6 ?v0) ?v2)) ?v1)) ?v3))))
(assert (forall ((?v0 S2) (?v1 S2) (?v2 S2)) (let ((?v_0 (f4 f29 ?v0))) (= (f3 ?v_0 (f3 (f4 f9 ?v1) ?v2)) (f3 (f4 f29 (f3 ?v_0 ?v1)) ?v2)))))
(assert (forall ((?v0 S7) (?v1 S2) (?v2 S2)) (let ((?v_0 (f31 f32 ?v0))) (= (f30 ?v_0 (f3 (f4 f9 ?v1) ?v2)) (f30 (f31 f32 (f30 ?v_0 ?v1)) ?v2)))))
(assert (forall ((?v0 S10) (?v1 S2) (?v2 S2)) (let ((?v_0 (f34 f35 ?v0))) (= (f33 ?v_0 (f3 (f4 f9 ?v1) ?v2)) (f33 (f34 f35 (f33 ?v_0 ?v1)) ?v2)))))
(assert (forall ((?v0 S7) (?v1 S7)) (= (f12 (f17 f27 ?v0) ?v1) (f12 (f17 f27 ?v1) ?v0))))
(assert (forall ((?v0 S7) (?v1 S7) (?v2 S7)) (let ((?v_1 (f17 f27 ?v0)) (?v_0 (f17 f27 ?v1))) (= (f12 ?v_1 (f12 ?v_0 ?v2)) (f12 ?v_0 (f12 ?v_1 ?v2))))))
(assert (forall ((?v0 S7) (?v1 S7) (?v2 S7)) (let ((?v_0 (f17 f27 ?v0))) (= (f12 (f17 f27 (f12 ?v_0 ?v1)) ?v2) (f12 ?v_0 (f12 (f17 f27 ?v1) ?v2))))))
(assert (forall ((?v0 S2) (?v1 S2) (?v2 S2)) (= (f3 (f4 f40 (f3 (f4 f6 ?v0) ?v1)) (f3 (f4 f6 ?v2) ?v1)) (f3 (f4 f40 ?v0) ?v2))))
(assert (forall ((?v0 S2) (?v1 S2) (?v2 S2)) (let ((?v_0 (f4 f6 ?v0))) (= (f3 (f4 f40 (f3 ?v_0 ?v1)) (f3 ?v_0 ?v2)) (f3 (f4 f40 ?v1) ?v2)))))
(assert (forall ((?v0 S2) (?v1 S2) (?v2 S2)) (let ((?v_0 (f4 f40 ?v0))) (= (f3 (f4 f40 (f3 ?v_0 ?v1)) ?v2) (f3 ?v_0 (f3 (f4 f6 ?v1) ?v2))))))
(assert (forall ((?v0 S2) (?v1 S2)) (= (f3 (f4 f40 (f3 (f4 f6 ?v0) ?v1)) ?v0) ?v1)))
(assert (forall ((?v0 S2) (?v1 S2)) (= (f3 (f4 f40 (f3 (f4 f6 ?v0) ?v1)) ?v1) ?v0)))
(assert (forall ((?v0 S7) (?v1 S7)) (= (f23 f24 (f12 (f17 f38 ?v0) ?v1)) (f20 (f21 f39 (f23 f24 ?v0)) (f23 f24 ?v1)))))
(assert (forall ((?v0 S7) (?v1 S7)) (= (f12 f19 (f12 (f17 f38 ?v0) ?v1)) (f12 (f17 f38 (f12 f19 ?v0)) (f12 f19 ?v1)))))
(assert (forall ((?v0 S2) (?v1 S2) (?v2 S2)) (let ((?v_0 (f4 f9 ?v0))) (= (f3 ?v_0 (f3 (f4 f40 ?v1) ?v2)) (f3 (f4 f40 (f3 ?v_0 ?v1)) (f3 ?v_0 ?v2))))))
(assert (forall ((?v0 S2) (?v1 S2) (?v2 S2)) (= (f3 (f4 f9 (f3 (f4 f40 ?v0) ?v1)) ?v2) (f3 (f4 f40 (f3 (f4 f9 ?v0) ?v2)) (f3 (f4 f9 ?v1) ?v2)))))
(assert (forall ((?v0 S7)) (= (f12 (f17 f38 ?v0) f15) ?v0)))
(assert (forall ((?v0 S7) (?v1 S7)) (= (f12 (f17 f38 (f12 f13 ?v0)) (f12 f13 ?v1)) (f12 f13 (f12 (f17 f38 ?v0) ?v1)))))
(assert (forall ((?v0 S7) (?v1 S7) (?v2 S7)) (let ((?v_0 (f17 f18 ?v0))) (= (f12 ?v_0 (f12 (f17 f38 ?v1) ?v2)) (f12 (f17 f38 (f12 ?v_0 ?v1)) (f12 ?v_0 ?v2))))))
(assert (forall ((?v0 S7) (?v1 S7) (?v2 S7)) (= (f12 (f17 f18 (f12 (f17 f38 ?v0) ?v1)) ?v2) (f12 (f17 f38 (f12 (f17 f18 ?v0) ?v2)) (f12 (f17 f18 ?v1) ?v2)))))
(assert (forall ((?v0 S3) (?v1 S5) (?v2 S5)) (=> (= (f8 ?v0 ?v1) f1) (= (f8 ?v0 (f41 (f42 ?v1) ?v2)) f1))))
(assert (forall ((?v0 S10) (?v1 S10) (?v2 S7)) (let ((?v_0 (f23 f24 ?v2))) (= (f20 (f21 f22 (f20 (f21 f39 ?v0) ?v1)) ?v_0) (f20 (f21 f39 (f20 (f21 f22 ?v0) ?v_0)) (f20 (f21 f22 ?v1) ?v_0))))))
(assert (forall ((?v0 S7) (?v1 S7) (?v2 S7)) (let ((?v_0 (f12 f19 ?v2))) (= (f12 (f17 f18 (f12 (f17 f38 ?v0) ?v1)) ?v_0) (f12 (f17 f38 (f12 (f17 f18 ?v0) ?v_0)) (f12 (f17 f18 ?v1) ?v_0))))))
(assert (forall ((?v0 S7) (?v1 S10) (?v2 S10)) (let ((?v_0 (f21 f22 (f23 f24 ?v0)))) (= (f20 ?v_0 (f20 (f21 f39 ?v1) ?v2)) (f20 (f21 f39 (f20 ?v_0 ?v1)) (f20 ?v_0 ?v2))))))
(assert (forall ((?v0 S7) (?v1 S7) (?v2 S7)) (let ((?v_0 (f17 f18 (f12 f19 ?v0)))) (= (f12 ?v_0 (f12 (f17 f38 ?v1) ?v2)) (f12 (f17 f38 (f12 ?v_0 ?v1)) (f12 ?v_0 ?v2))))))
(assert (forall ((?v0 S7) (?v1 S7) (?v2 S7)) (= (f12 (f17 f27 (f12 f19 ?v0)) (f12 (f17 f38 (f12 f19 ?v1)) ?v2)) (f12 (f17 f38 (f12 f19 (f12 (f17 f27 ?v0) ?v1))) ?v2))))
(assert (forall ((?v0 S7) (?v1 S7) (?v2 S10)) (= (f20 (f21 f28 (f23 f24 ?v0)) (f20 (f21 f39 (f23 f24 ?v1)) ?v2)) (f20 (f21 f39 (f23 f24 (f12 (f17 f27 ?v0) ?v1))) ?v2))))
(assert (forall ((?v0 S7) (?v1 S7)) (= (f12 (f17 f38 (f12 f14 ?v0)) (f12 f14 ?v1)) (f12 f13 (f12 (f17 f38 ?v0) ?v1)))))
(assert (forall ((?v0 S7) (?v1 S7)) (= (f12 (f17 f38 (f12 f14 ?v0)) (f12 f13 ?v1)) (f12 f14 (f12 (f17 f38 ?v0) ?v1)))))
(assert (forall ((?v0 S7)) (let ((?v_0 (f17 f38 f15))) (= (f12 ?v_0 (f12 f13 ?v0)) (f12 f13 (f12 ?v_0 ?v0))))))
(assert (forall ((?v0 S2) (?v1 S2)) (= (f3 (f4 f6 ?v0) ?v1) (f3 (f4 f6 ?v1) ?v0))))
(assert (forall ((?v0 S2) (?v1 S2) (?v2 S2)) (let ((?v_1 (f4 f6 ?v0)) (?v_0 (f4 f6 ?v1))) (= (f3 ?v_1 (f3 ?v_0 ?v2)) (f3 ?v_0 (f3 ?v_1 ?v2))))))
(assert (forall ((?v0 S2) (?v1 S2) (?v2 S2)) (let ((?v_0 (f4 f6 ?v0))) (= (f3 (f4 f6 (f3 ?v_0 ?v1)) ?v2) (f3 ?v_0 (f3 (f4 f6 ?v1) ?v2))))))
(assert (forall ((?v0 S2) (?v1 S2) (?v2 S2)) (let ((?v_0 (f4 f6 ?v0))) (= (= (f3 ?v_0 ?v1) (f3 ?v_0 ?v2)) (= ?v1 ?v2)))))
(assert (forall ((?v0 S2) (?v1 S2) (?v2 S2)) (= (= (f3 (f4 f6 ?v0) ?v1) (f3 (f4 f6 ?v2) ?v1)) (= ?v0 ?v2))))
(check-sat)
(exit)
